c turning on binary mode checking
c parsing input formula with 259840 variables and 1039934 clauses
c finished parsing, read 3220084 bytes from proof file
c detected empty clause; start verification via backward checking
c 12394 of 1039934 clauses in core                            
c 3617 of 120374 lemmas in core using 138131 resolution steps
c 0 RAT lemmas in core; 1081 redundant literals in core lemmas
s VERIFIED
c verification time: 1.985 seconds
